\ENCODING=ISO-8859-1
\Problem name: SUFL_5_5_1

Minimize
 obj: 55 x10 + 37 x11 + 53 x12 + 38 x13 + 65 x14 + 26 x15 + 47 x16 + 15 x17
      + 34 x18 + 29 x19 + 52 x20 + 52 x21 + 81 x22 + 61 x23 + 92 x24 + 33 x25
      + 37 x26 + 25 x27 + 25 x28 + 39 x29 + 50 x30 + 16 x6 + 46 x7 + 8 x8
      + 60 x9
Subject To
 c_e_x32_: x11 + x16 + x21 + x26 + x6  = 1
 c_e_x33_: x12 + x17 + x22 + x27 + x7  = 1
 c_e_x34_: x13 + x18 + x23 + x28 + x8  = 1
 c_e_x35_: x14 + x19 + x24 + x29 + x9  = 1
 c_e_x36_: x10 + x15 + x20 + x25 + x30  = 1
 c_u_x37_: x6 <= 1
 c_u_x38_: x7 <= 1
 c_u_x39_: x8 <= 1
 c_u_x40_: x9 <= 1
 c_u_x41_: x10 <= 1
 c_u_x42_: x11 <= 0
 c_u_x43_: x12 <= 0
 c_u_x44_: x13 <= 0
 c_u_x45_: x14 <= 0
 c_u_x46_: x15 <= 0
 c_u_x47_: x16 <= 1
 c_u_x48_: x17 <= 1
 c_u_x49_: x18 <= 1
 c_u_x50_: x19 <= 1
 c_u_x51_: x20 <= 1
 c_u_x52_: x21 <= 0
 c_u_x53_: x22 <= 0
 c_u_x54_: x23 <= 0
 c_u_x55_: x24 <= 0
 c_u_x56_: x25 <= 0
 c_u_x57_: x26 <= 0
 c_u_x58_: x27 <= 0
 c_u_x59_: x28 <= 0
 c_u_x60_: x29 <= 0
 c_u_x61_: x30 <= 0
Bounds
 0 <= x10 <= 1
 0 <= x11 <= 1
 0 <= x12 <= 1
 0 <= x13 <= 1
 0 <= x14 <= 1
 0 <= x15 <= 1
 0 <= x16 <= 1
 0 <= x17 <= 1
 0 <= x18 <= 1
 0 <= x19 <= 1
 0 <= x20 <= 1
 0 <= x21 <= 1
 0 <= x22 <= 1
 0 <= x23 <= 1
 0 <= x24 <= 1
 0 <= x25 <= 1
 0 <= x26 <= 1
 0 <= x27 <= 1
 0 <= x28 <= 1
 0 <= x29 <= 1
 0 <= x30 <= 1
 0 <= x6 <= 1
 0 <= x7 <= 1
 0 <= x8 <= 1
 0 <= x9 <= 1
End
